244 300 28 177 93 162 18 6 139 187 9 21 51 56 102 162 105 155 171 131 35 72 47 125 160 15 86 157 26 93 47 86 136 26 14 28 188 31 185 126 18 194 98 20 49 199 182 153 106 104 35 140 176 33 16 135 199 102 44 24 146 42 61 82 68 75 61 7 105 46 132 74 39 30 94 87 180 27 191 85 130 177 176 57 9 192 144 7 45 187 182 190 180 43 23 47 69 36 53 125 81 137 199 71 118 44 109 97 70 99 134 151 27 61 8 35 4 151 193 200 89 174 190 68 168 164 67 188 199 119 113 31 7 63 101 124 106 161 173 127 59 58 77 37 70 36 71 74 186 15 73 74 141 14 94 108 178 160 48 128 30 160 159 37 174 11 112 79 172 84 157 182 93 33 19 163 69 41 36 6 56 60 32 196 74 125 55 3 84 102 130 113 13 40 101 186 3 13 16 174 96 172 107 141 157 77 103 177 118 90 182 125 149 13 72 174 89 126 176 172 180 58 37 144 49 137 130 51 149 97 176 197 69 83 137 177 111 191 153 28 80 86 104 180 51 175 